\* Problem: myProblem *\

Maximize
 obj: + 17 x1 + 12 x2 + 12 x3

Subject To
 r1: + x3 + x2 + x1 <= 100
 r2: + 5 x3 + 4 x2 + 10 x1 <= 600
 r3: + 6 x3 + 2 x2 + 2 x1 <= 300

Bounds
 0 <= x1 <= 1
 0 <= x2 <= 1
 0 <= x3 <= 1

Generals
 x1
 x2
 x3

End
